numNurses = 216;
hours = 81;
demand = [23 48 18 20 20 46 0 28 46 8 48 18 16 34 18 9 39 31 34 8 35 36 18 18 1 1 17 40 52 28 23 34 18 45 27 4 20 43 45 14 0 31 35 47 34 42 38 30 19 46 45 50 35 23 29 29 32 34 8 46 46 32 19 33 41 53 52 3 2 26 36 17 22 26 41 30 41 53 23 16 7];
minHours = 3;
maxHours = 32;
maxConsec = 20;
maxPresence = 48;